(declare-fun b_ack!45 () (_ BitVec 64))
(declare-fun a_ack!46 () (_ BitVec 32))
(declare-fun FPCHECK_FMUL_ACCURACY ((_ BitVec 64) (_ FloatingPoint 11 53)) Bool)
(assert (not (fp.eq ((_ to_fp 11 53) b_ack!45) ((_ to_fp 11 53) #x0000000000000000))))
(assert (not (fp.lt ((_ to_fp 11 53) b_ack!45) ((_ to_fp 11 53) #x0000000000000000))))
(assert (not (bvslt (bvadd #x00000001 a_ack!46) #x00000000)))
(assert (not (fp.eq ((_ to_fp 11 53) b_ack!45) ((_ to_fp 11 53) #x0000000000000000))))
(assert (not (= #xffffffff a_ack!46)))
(assert (= #x00000000 a_ack!46))
(assert (not (fp.eq ((_ to_fp 11 53) b_ack!45) ((_ to_fp 11 53) #x0000000000000000))))
(assert (not (fp.lt (fp.abs ((_ to_fp 11 53) b_ack!45))
            ((_ to_fp 11 53) #x0028000000000000))))
(assert (not (fp.lt (fp.abs ((_ to_fp 11 53) b_ack!45))
            ((_ to_fp 11 53) #x3fd0000000000000))))
(assert (FPCHECK_FMUL_ACCURACY #xc000000000000000 (fp.abs ((_ to_fp 11 53) b_ack!45))))

(check-sat)
(exit)
